c File:  sanr400_0.5.clq
c
c SOURCE: Laura Sanchis (laura@cs.colgate.edu)
c
c DESCRIPTION:  Randomly generated graph of similar size to "san"
c               graphs, but with differenct clique characteristics
c
c REFERENCE: "Test Case Construction for the Vertex Cover Problem", 
c DIMACS Workshop on Computational Support for Discrete Mathematics, 
c March, 1992, with additional work in a to be published technical
c report.
c
c random graph 400 vertices 39984 edges
c 400 0.500000 1243
p edge 400 39984
e 2 1
e 5 3
e 5 4
e 6 1
e 6 2
e 6 3
e 6 4
e 6 5
e 7 1
e 7 2
e 7 3
e 7 4
e 7 6
e 8 1
e 8 2
e 8 3
e 8 5
e 8 6
e 9 3
e 9 4
e 9 6
e 9 7
e 10 1
e 10 3
e 10 4
e 11 1
e 11 2
e 11 4
e 11 5
e 11 6
e 11 7
e 12 2
e 12 4
e 12 7
e 12 9
e 12 10
e 12 11
e 13 2
e 13 4
e 13 5
e 13 6
e 13 7
e 13 12
e 14 1
e 14 2
e 14 4
e 14 8
e 14 9
e 14 11
e 15 1
e 15 3
e 15 10
e 15 12
e 15 13
e 16 5
e 16 7
e 16 11
e 16 12
e 16 14
e 16 15
e 17 4
e 17 5
e 17 8
e 17 9
e 17 10
e 17 12
e 17 13
e 17 15
e 17 16
e 18 2
e 18 5
e 18 6
e 18 7
e 18 8
e 18 9
e 19 2
e 19 3
e 19 4
e 19 5
e 19 6
e 19 7
e 19 8
e 19 10
e 19 11
e 19 13
e 19 14
e 19 15
e 20 1
e 20 2
e 20 3
e 20 4
e 20 8
e 20 9
e 20 12
e 20 13
e 20 16
e 20 18
e 21 3
e 21 4
e 21 7
e 21 9
e 21 12
e 21 16
e 21 19
e 22 2
e 22 3
e 22 4
e 22 5
e 22 11
e 22 12
e 22 15
e 22 16
e 23 4
e 23 7
e 23 9
e 23 10
e 23 11
e 23 13
e 23 15
e 23 16
e 23 17
e 23 18
e 23 20
e 23 21
e 23 22
e 24 1
e 24 2
e 24 6
e 24 7
e 24 9
e 24 10
e 24 11
e 24 13
e 24 14
e 24 15
e 24 16
e 24 21
e 24 22
e 24 23
e 25 1
e 25 3
e 25 4
e 25 5
e 25 9
e 25 12
e 25 15
e 25 16
e 25 20
e 25 24
e 26 1
e 26 2
e 26 4
e 26 5
e 26 6
e 26 8
e 26 9
e 26 18
e 26 19
e 26 20
e 26 23
e 26 24
e 27 3
e 27 4
e 27 6
e 27 7
e 27 8
e 27 10
e 27 11
e 27 13
e 27 16
e 27 18
e 27 20
e 27 21
e 27 22
e 27 24
e 27 25
e 28 1
e 28 3
e 28 4
e 28 5
e 28 8
e 28 9
e 28 12
e 28 13
e 28 14
e 28 15
e 28 17
e 28 18
e 28 20
e 28 21
e 28 27
e 29 2
e 29 7
e 29 8
e 29 11
e 29 12
e 29 13
e 29 14
e 29 16
e 29 24
e 29 25
e 29 27
e 29 28
e 30 1
e 30 2
e 30 4
e 30 9
e 30 10
e 30 11
e 30 13
e 30 16
e 30 17
e 30 19
e 30 20
e 30 21
e 30 22
e 30 23
e 30 25
e 30 26
e 30 29
e 31 1
e 31 2
e 31 4
e 31 6
e 31 12
e 31 13
e 31 15
e 31 16
e 31 17
e 31 18
e 31 21
e 31 24
e 31 28
e 31 29
e 31 30
e 32 1
e 32 3
e 32 4
e 32 6
e 32 7
e 32 9
e 32 10
e 32 12
e 32 13
e 32 17
e 32 20
e 32 22
e 32 25
e 32 28
e 33 1
e 33 2
e 33 4
e 33 5
e 33 6
e 33 9
e 33 10
e 33 11
e 33 13
e 33 14
e 33 15
e 33 18
e 33 19
e 33 20
e 33 22
e 33 23
e 33 24
e 33 26
e 34 1
e 34 4
e 34 9
e 34 10
e 34 11
e 34 12
e 34 14
e 34 15
e 34 16
e 34 17
e 34 18
e 34 19
e 34 21
e 34 23
e 34 24
e 34 26
e 34 27
e 34 28
e 34 31
e 34 32
e 35 2
e 35 4
e 35 6
e 35 7
e 35 9
e 35 10
e 35 13
e 35 14
e 35 18
e 35 20
e 35 21
e 35 22
e 35 24
e 35 26
e 35 27
e 35 28
e 35 33
e 36 1
e 36 3
e 36 5
e 36 7
e 36 8
e 36 10
e 36 12
e 36 13
e 36 17
e 36 20
e 36 21
e 36 22
e 36 23
e 36 24
e 36 25
e 36 26
e 36 29
e 36 30
e 36 33
e 36 34
e 37 2
e 37 7
e 37 8
e 37 9
e 37 13
e 37 15
e 37 16
e 37 18
e 37 19
e 37 22
e 37 23
